In1 As1                                 
    1.000000000000000     
     3.7311192925314476   -0.0000000008451428    2.1541623128801626
     1.2437067692546839    3.5177323065152097    2.1541623128801626
    -0.0000000000134544   -0.0000000000095137    4.3083246158069315
   In   As
     1     1
Direct
  0.2500000000000000  0.2500000000000000  0.2500000000000000
  0.0000000000000000  0.0000000000000000  0.0000000000000000
 