K-points for NSCF calculation
42
Reciprocal
  0.00000000  0.00000000  0.00000000  1
  0.00000000  0.00000000  0.00000000  1
  -0.10000000  0.00000000  0.00000000  1
  0.10000000  0.00000000  0.00000000  1
  0.10000000  0.00000000  0.00000000  1
  -0.10000000  -0.00000000  0.00000000  1
  0.00000000  -0.10000000  0.00000000  1
  0.00000000  0.10000000  0.00000000  1
  0.00000000  0.10000000  0.00000000  1
  0.00000000  -0.10000000  0.00000000  1
  0.00000000  0.00000000  -0.10000000  1
  -0.00000000  -0.00000000  0.10000000  1
  -0.10000000  -0.10000000  -0.10000000  1
  0.10000000  0.10000000  0.10000000  1
  0.00000000  0.00000000  0.10000000  1
  0.00000000  0.00000000  -0.10000000  1
  0.10000000  0.10000000  0.10000000  1
  -0.10000000  -0.10000000  -0.10000000  1
  0.10000000  -0.10000000  0.00000000  1
  -0.10000000  0.10000000  0.00000000  1
  -0.10000000  0.10000000  0.00000000  1
  0.10000000  -0.10000000  0.00000000  1
  0.10000000  0.00000000  -0.10000000  1
  -0.10000000  -0.00000000  0.10000000  1
  -0.20000000  -0.10000000  -0.10000000  1
  0.20000000  0.10000000  0.10000000  1
  -0.10000000  -0.20000000  -0.10000000  1
  0.10000000  0.20000000  0.10000000  1
  0.00000000  0.10000000  -0.10000000  1
  -0.00000000  -0.10000000  0.10000000  1
  -0.10000000  -0.10000000  -0.20000000  1
  0.10000000  0.10000000  0.20000000  1
  0.10000000  0.10000000  0.20000000  1
  -0.10000000  -0.10000000  -0.20000000  1
  -0.10000000  0.00000000  0.10000000  1
  0.10000000  0.00000000  -0.10000000  1
  0.00000000  -0.10000000  0.10000000  1
  0.00000000  0.10000000  -0.10000000  1
  0.10000000  0.20000000  0.10000000  1
  -0.10000000  -0.20000000  -0.10000000  1
  0.20000000  0.10000000  0.10000000  1
  -0.20000000  -0.10000000  -0.10000000  1
