ALGO = Normal
EDIFF = 1e-06
EDIFFG = -0.01
ENCUT = 520.0
IBRION = -1
ISIF = 3
ISMEAR = 0
ISPIN = 2
LAECHG = True
LASPH = True
LCHARG = True
LMAXMIX = 4
LORBIT = 11
LREAL = False
LVHAR = True
LWAVE = True
MAGMOM = 2*0.6
NELM = 100
NSW = 0
PREC = Accurate
SIGMA = 0.05
ISYM = -1 #
